WARNING: for repeatability, setting FPU to use double precision
============================[ Problem Statistics ]=============================
|                                                                             |
|  Number of variables:            50                                         |
|  Number of clauses:             218                                         |
|  Parse time:                   0.00 s                                       |
|                                                                             |
============================[ Search Statistics ]==============================
| Conflicts |          ORIGINAL         |          LEARNT          | Progress |
|           |    Vars  Clauses Literals |    Limit  Clauses Lit/Cl |          |
===============================================================================
===============================================================================
restarts              : 1
conflicts             : 55             (36137 /sec)
decisions             : 68             (0.00 % random) (44678 /sec)
propagations          : 890            (584757 /sec)
conflict literals     : 218            (21.30 % deleted)
Memory used           : 20.00 MB
CPU time              : 0.001522 s

SATISFIABLE
